(set-logic ALL)
(declare-const x Real)
(assert (< (ite (>= (+ (+ (+ (+ (* 1 1.0) 0) (* 2 x)) (* 3 (* x x))) (* 17 (* (* x x) x))) 0) (+ (+ (+ (+ (* 1 1.0) 0) (* 2 x)) (* 3 (* x x))) (* 17 (* (* x x) x))) (- (+ (+ (+ (+ (* 1 1.0) 0) (* 2 x)) (* 3 (* x x))) (* 17 (* (* x x) x))))) 0.0001))
(check-sat)
(get-model)
